[2026-03-01T23:46:49] Logging to: /run/media/saveas/Secondary-Storage/Masters/CS234/CS234_Reinforcement_Learning/Final Project/CS234_Final_Project/results/trajectory_optimization/nlp/Oval_Track_260m_Obstacles/N120/run_trajopt_demo_output.log
======================================================================
IPOPT TRAJECTORY OPTIMIZATION DEMO (SINGLE STAGE)
======================================================================

1. Loading track: /run/media/saveas/Secondary-Storage/Masters/CS234/CS234_Reinforcement_Learning/Final Project/CS234_Final_Project/maps/Oval_Track_260m_Obstacles.mat
   Track length: 260.0 m

2. Creating vehicle model...
   Vehicle: SingleTrackModel(VW_Golf_GTI, weight_transfer=enabled)

3. Loaded obstacles from map: 4

4. Setup:
   N = 120
   ds = 2.17 m
   Obstacle subsamples/segment = 11
   Obstacle enforce midpoints = True
   Obstacle use slack = False
   Track buffer = 0.00 m
   lambda_u = 0.005
   vehicle_radius_m = 0.00
   eps_s = 0.100, eps_kappa = 0.050
   Solver path = Python/CasADi (IPOPT)

======================================================================
SINGLE STAGE: COMBINED OBJECTIVE (ACCEPTANCE-GATED)
======================================================================
Acceptance gates: success=True, max_slack<=0.000e+00, min_clearance>=-0.0050 m
Acceptance policy: practical epsilon mode (allows tiny negative dense clearance).
Initializer: obstacle_aware_init=True, sigma=8.00 m, margin=0.50 m

Attempt 1/4: baseline
  N=120, ds=2.167 m, subsamples=11, obstacle_clearance_m=0.300
Initializer: obstacle-aware e(s) enabled (sigma=8.00m, margin=0.30m)
Exception of type: DYNAMIC_LIBRARY_FAILURE in file "Common/IpLibraryLoader.cpp" at line 72:
 Exception message: libhsl.so: cannot open shared object file: No such file or directory

EXIT: Library loading failure.
      solver  :   t_proc      (avg)   t_wall      (avg)    n_eval
       total  | 488.00us (488.00us) 486.26us (486.26us)         1
Solver failed with ipopt.linear_solver=ma57: Error in Opti::solve [OptiNode] at .../casadi/core/optistack.cpp:217:
.../casadi/core/optistack_internal.cpp:1338: Assertion "return_success(accept_limit)" failed:
Solver failed. You may use opti.debug.value to investigate the latest values of variables. return_status is 'Invalid_Option'
Retrying with IPOPT default linear solver.

******************************************************************************
This program contains Ipopt, a library for large-scale nonlinear optimization.
 Ipopt is released as open source code under the Eclipse Public License (EPL).
         For more information visit https://github.com/coin-or/Ipopt
******************************************************************************

This is Ipopt version 3.14.11, running with linear solver MUMPS 5.4.1.

Number of nonzeros in equality constraint Jacobian...:    12267
Number of nonzeros in inequality constraint Jacobian.:     3864
Number of nonzeros in Lagrangian Hessian.............:     4633

Total number of variables............................:     1210
                     variables with only lower bounds:        0
                variables with lower and upper bounds:        0
                     variables with only upper bounds:        0
Total number of equality constraints.................:      970
Total number of inequality constraints...............:     2352
        inequality constraints with only lower bounds:     1989
   inequality constraints with lower and upper bounds:        0
        inequality constraints with only upper bounds:      363

iter    objective    inf_pr   inf_du lg(mu)  ||d||  lg(rg) alpha_du alpha_pr  ls
   0  2.6000000e+01 3.63e-01 1.72e+00  -1.0 0.00e+00    -  0.00e+00 0.00e+00   0
   1  2.5937973e+01 1.13e+00 8.95e+02  -1.0 5.67e+00   2.0 7.80e-01 1.00e+00H  1
   2  2.5940365e+01 1.46e+00 4.18e+03  -1.0 1.64e-01   3.3 9.91e-01 5.00e-01h  2
   3  2.5942263e+01 1.08e+00 3.08e+03  -1.0 1.46e-01   3.8 1.00e+00 5.00e-01h  2
   4  2.5950384e+01 1.76e-01 1.19e+03  -1.0 1.17e-01   3.3 1.00e+00 1.00e+00h  1
   5  2.5952382e+01 6.25e-03 4.15e+02  -1.0 1.47e-02   2.8 1.00e+00 1.00e+00h  1
   6  2.5952319e+01 1.01e-05 2.66e+00  -1.0 4.09e-04   2.3 1.00e+00 1.00e+00h  1
   7  2.5952024e+01 4.02e-06 3.40e-02  -1.0 4.85e-04   1.8 1.00e+00 1.00e+00h  1
   8  1.5635926e+01 8.15e+00 3.64e-01  -2.5 2.74e+01    -  3.38e-01 6.15e-01f  1
   9  1.4731753e+01 9.65e+00 3.10e-01  -2.5 3.81e+01    -  1.29e-01 6.62e-01h  1
iter    objective    inf_pr   inf_du lg(mu)  ||d||  lg(rg) alpha_du alpha_pr  ls
  10  1.5009810e+01 1.25e+01 1.81e+03  -2.5 5.50e+00   1.4 2.75e-03 1.25e-01h  1
  11  1.5012445e+01 1.25e+01 1.80e+03  -2.5 4.01e+00   2.7 7.59e-02 1.75e-03h  1
  12  1.5230541e+01 1.03e+01 1.88e+04  -2.5 8.06e+00   2.2 1.37e-01 1.54e-01h  1
  13  1.5231830e+01 1.03e+01 1.87e+04  -2.5 3.71e+00   3.6 2.58e-03 9.62e-04h  1
  14  1.5239916e+01 1.03e+01 1.86e+04  -2.5 3.49e+00   3.1 6.09e-02 6.02e-03h  1
  15  1.5240104e+01 1.03e+01 1.86e+04  -2.5 3.56e+00   3.5 7.53e-03 1.40e-04h  1
  16  1.5531386e+01 1.38e+01 3.29e+04  -2.5 3.55e+00   3.0 1.99e-01 2.11e-01h  1
  17  1.5532701e+01 1.38e+01 3.28e+04  -2.5 4.03e+00   3.4 8.43e-02 1.11e-03h  1
  18  1.5534326e+01 1.38e+01 3.28e+04  -2.5 3.93e+00   3.9 1.98e-01 1.36e-03h  1
  19  1.5535770e+01 1.34e+01 3.27e+04  -2.5 1.28e+02   3.4 1.79e-03 2.87e-03h  1
iter    objective    inf_pr   inf_du lg(mu)  ||d||  lg(rg) alpha_du alpha_pr  ls
  20  1.5536786e+01 1.34e+01 3.27e+04  -2.5 4.29e+00   3.8 1.19e-01 8.33e-04h  1
  21  1.5545367e+01 1.33e+01 3.24e+04  -2.5 7.99e+00   3.3 1.04e-01 7.10e-03h  1
  22  1.5746065e+01 1.11e+01 6.42e+04  -2.5 4.96e+00   3.8 2.05e-01 1.58e-01h  1
  23  1.5759010e+01 1.10e+01 1.16e+05  -2.5 2.97e+00   5.1 5.38e-04 1.22e-02h  1
  24  1.5768531e+01 1.09e+01 4.94e+05  -2.5 2.95e+00   5.5 1.79e-01 9.52e-03h  1
  25  1.5901564e+01 9.56e+00 4.18e+05  -2.5 4.57e+00   5.0 7.76e-02 1.24e-01h  1
  26  1.5946820e+01 9.11e+00 4.40e+05  -2.5 2.59e+00   5.5 3.92e-03 4.72e-02h  1
  27  1.5946960e+01 9.10e+00 1.83e+06  -2.5 2.46e+00   5.9 2.67e-01 1.41e-04h  1
  28  1.5947010e+01 9.10e+00 1.87e+06  -2.5 2.42e+00   5.4 6.60e-02 4.99e-05h  1
  29  1.6120365e+01 1.05e+01 1.43e+07  -2.5 2.44e+00   5.9 1.27e-02 1.71e-01h  1
iter    objective    inf_pr   inf_du lg(mu)  ||d||  lg(rg) alpha_du alpha_pr  ls
  30  1.6120949e+01 1.05e+01 1.42e+07  -2.5 3.63e+00   5.4 3.55e-04 6.35e-04h  1
  31r 1.6120949e+01 1.05e+01 1.00e+03   1.0 0.00e+00   5.8 0.00e+00 3.67e-07R  4
  32r 1.6124299e+01 2.68e+00 9.89e+02   1.0 9.21e+03    -  6.04e-01 1.13e-03f  1
  33  1.6990853e+01 9.37e+00 8.29e+00  -2.5 4.80e+00    -  5.71e-01 1.00e+00h  1
  34  1.7109105e+01 6.46e+00 4.63e+00  -2.5 4.61e+00    -  3.54e-01 4.68e-01h  1
  35  1.7111190e+01 6.33e+00 7.82e+03  -2.5 1.84e+00   5.3 1.41e-03 2.03e-02h  1
  36  1.7111198e+01 6.33e+00 7.82e+03  -2.5 2.05e+00   4.8 3.69e-02 4.63e-05h  1
  37  1.7116391e+01 6.16e+00 9.02e+03  -2.5 2.09e+00   4.4 6.79e-02 2.98e-02h  1
  38  1.7159718e+01 5.27e+00 2.47e+04  -2.5 2.21e+00   3.9 1.28e-01 1.96e-01h  1
  39  1.7330712e+01 7.99e+00 1.21e+05  -2.5 2.04e+00   3.4 6.45e-04 4.05e-01H  1
iter    objective    inf_pr   inf_du lg(mu)  ||d||  lg(rg) alpha_du alpha_pr  ls
  40  1.7330791e+01 7.99e+00 1.21e+05  -2.5 4.81e+00   3.8 1.04e-01 2.75e-04h  1
  41  1.7330798e+01 7.99e+00 1.21e+05  -2.5 4.85e+00   4.3 1.27e-01 2.33e-05h  1
  42  1.7361179e+01 3.25e+00 1.07e+05  -2.5 4.99e+00   3.8 1.09e-03 1.02e-01h  1
  43  1.7361245e+01 3.25e+00 1.07e+05  -2.5 1.31e+00   4.2 1.43e-03 3.71e-04h  1
  44  1.7433592e+01 2.11e+00 7.03e+04  -2.5 1.33e+00   3.7 3.72e-01 3.84e-01h  1
  45  1.7434280e+01 2.10e+00 7.00e+04  -2.5 9.07e-01   3.3 1.32e-01 3.37e-03h  1
  46  1.7472936e+01 1.70e+00 5.66e+04  -2.5 9.29e-01   3.7 1.41e-01 1.98e-01h  1
  47  1.7473316e+01 1.70e+00 5.65e+04  -2.5 1.00e+00   3.2 1.25e-03 1.75e-03h  1
  48  1.7593363e+01 9.75e-01 3.15e+04  -2.5 9.65e-01   2.7 1.73e-05 4.98e-01h  1
  49  1.7602618e+01 9.57e-01 3.04e+04  -2.5 1.48e+01   2.3 4.03e-02 3.33e-02h  1
iter    objective    inf_pr   inf_du lg(mu)  ||d||  lg(rg) alpha_du alpha_pr  ls
  50  1.7607322e+01 9.22e-01 2.94e+04  -2.5 6.72e-01   2.7 7.89e-01 3.60e-02h  1
  51  1.7608434e+01 9.16e-01 2.92e+04  -2.5 3.06e+00   2.2 1.77e-01 6.61e-03h  1
  52  1.7711434e+01 3.22e-01 1.40e+04  -2.5 6.33e-01   2.6 5.92e-02 8.08e-01h  1
  53  1.7715238e+01 2.61e-01 1.14e+04  -2.5 6.65e-02   4.0 2.17e-02 1.95e-01h  1
  54  1.7715261e+01 2.61e-01 1.13e+04  -2.5 5.46e-02   3.5 9.97e-01 1.25e-03h  1
  55  1.7734805e+01 8.13e-03 1.56e+03  -2.5 5.95e-02   3.0 1.00e+00 1.00e+00h  1
  56  1.7735193e+01 5.28e-05 2.32e+01  -2.5 3.47e-03   2.5 9.98e-01 1.00e+00h  1
  57  1.7735256e+01 4.42e-04 2.22e+00  -2.5 1.97e-02   2.1 1.00e+00 1.00e+00f  1
  58  1.7735190e+01 1.37e-05 9.51e-02  -2.5 2.53e-03   1.6 1.00e+00 1.00e+00h  1
  59  1.7735012e+01 2.08e-05 3.98e-02  -2.5 3.11e-03   1.1 1.00e+00 1.00e+00h  1
iter    objective    inf_pr   inf_du lg(mu)  ||d||  lg(rg) alpha_du alpha_pr  ls
  60  1.7734508e+01 1.34e-04 3.04e-02  -2.5 7.25e-03   0.6 1.00e+00 1.00e+00h  1
  61  1.7733168e+01 9.15e-04 1.83e-02  -2.5 1.27e-02   0.1 1.00e+00 1.00e+00h  1
  62  1.7729623e+01 4.25e-03 5.26e-03  -3.8 9.73e-03  -0.3 9.96e-01 1.00e+00h  1
  63  1.7720982e+01 9.01e-03 2.37e-02  -3.8 2.46e-02  -0.8 1.00e+00 1.00e+00h  1
  64  1.7699626e+01 7.57e-03 2.85e-02  -3.8 6.86e-02  -1.3 1.00e+00 1.00e+00h  1
  65  1.7642974e+01 6.88e-02 3.17e-03  -3.8 1.77e-01  -1.8 1.00e+00 1.00e+00h  1
  66  1.7559697e+01 2.02e-01 1.05e-02  -3.8 5.79e-01  -2.2 1.00e+00 5.93e-01h  1
  67  1.7454635e+01 4.20e+00 2.49e-01  -3.8 1.38e+01  -2.7 1.41e-01 2.15e-01h  1
  68  1.7347332e+01 3.39e+00 1.93e-01  -3.8 3.02e+00  -3.2 4.66e-01 2.06e-01h  1
  69  1.7167523e+01 4.38e+00 1.20e-01  -3.8 2.12e+01  -3.7 1.41e-01 1.98e-01h  1
iter    objective    inf_pr   inf_du lg(mu)  ||d||  lg(rg) alpha_du alpha_pr  ls
  70  1.7051044e+01 2.84e+00 8.43e-02  -3.8 3.76e+00  -3.2 8.61e-01 3.65e-01h  1
  71  1.6909042e+01 7.44e+00 5.99e-02  -3.8 2.81e+01  -3.7 2.89e-01 2.69e-01h  1
  72  1.6909315e+01 6.22e+00 5.06e-02  -3.8 4.79e+00  -2.4 1.57e-01 1.26e-01h  1
  73  1.6913372e+01 5.39e+00 4.37e-02  -3.8 4.40e+00  -2.0 4.42e-02 1.24e-01h  1
  74  1.6917968e+01 4.80e+00 3.97e-02  -3.8 3.84e+00  -1.5 6.95e-02 1.10e-01h  1
  75  1.6928290e+01 3.31e+00 2.74e-01  -3.8 3.45e+00  -2.0 2.02e-01 3.59e-01h  1
  76  1.6924063e+01 2.68e+00 2.22e-01  -3.8 2.44e+00  -2.5 1.00e+00 2.02e-01h  1
  77  1.6931722e+01 4.70e-01 6.27e-02  -3.8 1.79e+00  -2.1 1.00e+00 1.00e+00h  1
  78  1.6916567e+01 4.28e-01 5.11e-02  -3.8 1.35e+00  -2.6 3.56e-01 1.83e-01h  1
  79  1.6862919e+01 3.81e-01 2.88e-02  -3.8 8.76e-01  -3.0 1.00e+00 4.60e-01h  1
iter    objective    inf_pr   inf_du lg(mu)  ||d||  lg(rg) alpha_du alpha_pr  ls
  80  1.6824130e+01 3.18e-01 2.33e-02  -3.8 1.69e+00  -3.5 1.00e+00 1.95e-01h  1
  81  1.6772869e+01 2.09e-01 8.92e-03  -3.8 7.57e-01  -3.1 1.00e+00 6.67e-01h  1
  82  1.6774194e+01 1.93e-01 4.52e-02  -3.8 1.23e-01  -1.7 7.65e-01 8.31e-01h  1
  83  1.6773573e+01 1.24e-01 2.92e-02  -3.8 8.43e-02  -1.3 5.22e-01 3.61e-01h  1
  84  1.6773341e+01 1.19e-01 9.72e-02  -3.8 5.89e-01  -1.8 1.00e+00 4.54e-02h  1
  85  1.6771274e+01 1.97e-02 4.89e-02  -3.8 8.54e-02  -1.4 6.46e-01 1.00e+00f  1
  86  1.6768313e+01 4.22e-01 2.66e-02  -3.8 5.94e-01  -1.9 3.56e-01 4.92e-01h  1
  87  1.6765319e+01 1.63e-01 7.75e-03  -3.8 1.58e-01  -1.4 1.00e+00 1.00e+00h  1
  88  1.6758748e+01 6.47e-02 1.30e-02  -3.8 7.83e-02  -1.9 1.00e+00 1.00e+00h  1
  89  1.6756508e+01 1.94e-02 3.14e-03  -3.8 2.86e-02  -1.5 1.00e+00 1.00e+00h  1
iter    objective    inf_pr   inf_du lg(mu)  ||d||  lg(rg) alpha_du alpha_pr  ls
  90  1.6749622e+01 9.35e-03 1.41e-03  -3.8 7.25e-02  -2.0 1.00e+00 1.00e+00h  1
  91  1.6747087e+01 6.21e-02 3.48e-03  -3.8 3.05e-02  -1.5 1.00e+00 1.00e+00h  1
  92  1.6739493e+01 8.44e-01 1.29e-01  -3.8 2.42e-01  -2.0 1.00e+00 1.00e+00h  1
  93  1.6737318e+01 1.52e-01 3.12e-02  -3.8 1.12e-01  -1.6 1.00e+00 9.92e-01h  1
  94  1.6737330e+01 1.25e-02 5.40e-03  -3.8 9.64e-03  -0.3 1.00e+00 1.00e+00f  1
  95  1.6737083e+01 2.24e-04 1.27e-03  -3.8 4.27e-03  -0.7 1.00e+00 1.00e+00h  1
  96  1.6735556e+01 4.74e-04 8.61e-04  -5.7 1.23e-02  -1.2 9.38e-01 1.00e+00h  1
  97  1.6732518e+01 8.74e-04 1.03e-03  -5.7 3.53e-02  -1.7 1.00e+00 7.76e-01h  1
  98  1.6729522e+01 8.45e-04 5.90e-03  -5.7 9.82e-02  -2.2 1.00e+00 3.56e-01h  1
  99  1.6725072e+01 2.67e-03 8.35e-03  -5.7 2.61e-01  -2.6 1.00e+00 2.09e-01h  1
iter    objective    inf_pr   inf_du lg(mu)  ||d||  lg(rg) alpha_du alpha_pr  ls
 100  1.6714668e+01 1.26e-02 9.38e-03  -5.7 6.05e-01  -3.1 6.83e-01 1.99e-01h  1
 101  1.6689947e+01 8.36e-02 1.11e-02  -5.7 1.28e+00  -3.6 1.00e+00 2.21e-01h  1
 102  1.6675893e+01 9.48e-02 1.07e-02  -5.7 2.94e+00  -4.1 1.40e-01 7.31e-02h  1
 103  1.6659049e+01 9.50e-02 1.32e-02  -5.7 6.62e+00  -4.5 3.86e-01 5.83e-02h  1
 104  1.6623876e+01 9.95e-02 1.26e-02  -5.7 1.29e+01  -5.0 1.50e-01 8.61e-02h  1
 105  1.6591984e+01 5.50e-01 1.39e-02  -5.7 2.76e+01  -5.5 3.00e-01 4.74e-02h  1
 106  1.6589735e+01 5.91e-01 7.71e-03  -5.7 1.19e-01  -2.4 1.00e+00 6.01e-01h  1
 107  1.6583135e+01 3.01e-01 4.14e-03  -5.7 2.45e-01  -2.8 1.00e+00 5.24e-01h  1
 108  1.6572230e+01 1.93e-01 2.47e-03  -5.7 7.15e-01  -3.3 1.00e+00 3.73e-01h  1
 109  1.6555534e+01 2.73e-01 2.73e-03  -5.7 2.18e+00  -3.8 1.00e+00 2.78e-01h  1
iter    objective    inf_pr   inf_du lg(mu)  ||d||  lg(rg) alpha_du alpha_pr  ls
 110  1.6544315e+01 2.35e-01 1.83e-03  -5.7 7.85e-01  -3.4 1.00e+00 4.90e-01h  1
 111  1.6541277e+01 2.44e+00 1.31e-01  -5.7 5.83e+00  -2.9 1.20e-01 3.44e-01h  1
 112  1.6541410e+01 2.33e+00 1.20e-01  -5.7 3.41e+00  -1.6 8.04e-05 6.56e-02h  1
 113  1.6540378e+01 1.81e+00 5.57e-02  -5.7 1.26e+00  -2.1 1.28e-01 3.35e-01h  1
 114  1.6540463e+01 1.79e+00 3.53e-02  -5.7 1.76e+00  -1.7 5.58e-02 3.54e-02h  1
 115  1.6540394e+01 1.76e+00 4.40e-02  -5.7 7.26e-01  -0.3 2.75e-02 3.44e-02f  1
 116  1.6540355e+01 1.75e+00 4.42e-02  -5.7 1.19e+00  -0.8 3.90e-02 7.89e-03h  1
 117  1.6540338e+01 1.74e+00 4.41e-02  -5.7 1.39e+00  -0.4 1.02e-02 3.22e-03h  1
 118  1.6540227e+01 1.69e+00 3.60e-02  -5.7 1.42e+00  -0.9 1.23e-02 3.30e-02h  1
 119  1.6539913e+01 1.34e+00 3.57e-02  -5.7 1.61e+00  -1.3 4.75e-02 2.10e-01h  1
iter    objective    inf_pr   inf_du lg(mu)  ||d||  lg(rg) alpha_du alpha_pr  ls
 120  1.6540605e+01 1.07e+00 6.29e-02  -5.7 2.18e+00  -1.8 3.22e-02 3.19e-01h  1
 121  1.6540711e+01 8.07e-01 3.62e-02  -5.7 8.50e-01  -1.4 6.16e-01 2.42e-01h  1
 122  1.6541284e+01 1.20e-01 1.16e-02  -5.7 8.58e-01  -1.9 1.00e+00 1.00e+00h  1
 123  1.6540641e+01 9.46e-02 3.64e-02  -5.7 7.95e-02  -2.3 1.00e+00 2.17e-01h  1
 124  1.6539245e+01 7.59e-02 3.13e-02  -5.7 2.21e-01  -2.8 1.00e+00 2.04e-01h  1
 125  1.6535823e+01 6.09e-02 2.60e-02  -5.7 6.45e-01  -3.3 1.00e+00 2.12e-01h  1
 126  1.6518062e+01 9.05e-02 1.41e-02  -5.7 1.78e+00  -3.8 1.00e+00 4.74e-01h  1
 127  1.6474861e+01 2.63e-01 1.08e-02  -5.7 4.09e+00  -4.3 5.41e-01 6.10e-01h  1
 128  1.6405941e+01 5.72e-01 9.03e-03  -5.7 7.30e+00  -4.7 4.45e-01 5.69e-01h  1
 129  1.6410842e+01 6.23e-01 2.19e-02  -5.7 2.39e-01  -2.5 5.31e-02 1.00e+00h  1
iter    objective    inf_pr   inf_du lg(mu)  ||d||  lg(rg) alpha_du alpha_pr  ls
 130  1.6408642e+01 9.89e-01 6.97e-02  -5.7 1.04e+00  -3.0 5.60e-01 7.14e-01h  1
 131  1.6406825e+01 1.17e+00 2.40e-02  -5.7 2.22e+00  -3.5 3.04e-02 1.87e-01h  1
 132  1.6406894e+01 1.13e+00 1.40e-01  -5.7 3.26e-01  -0.3 1.46e-01 2.16e-01h  1
 133  1.6406816e+01 1.05e+00 1.33e-01  -5.7 5.87e-01  -0.8 1.42e-01 7.00e-02h  1
 134  1.6406837e+01 1.03e+00 1.30e-01  -5.7 1.23e+00  -1.3 3.77e-01 2.09e-02h  1
 135  1.6406923e+01 9.30e-01 1.61e-01  -5.7 8.85e-01  -0.8 3.44e-01 9.59e-02h  1
 136  1.6407838e+01 6.36e-01 3.54e-02  -5.7 5.93e-01  -1.3 1.07e-01 3.40e-01h  1
 137  1.6407879e+01 5.61e-01 3.68e-02  -5.7 6.89e-01  -1.8 1.45e-02 1.18e-01h  1
 138  1.6408244e+01 4.17e-01 1.05e-01  -5.7 5.92e-01  -1.4 7.36e-01 2.58e-01H  1
 139  1.6409798e+01 1.55e-01 7.56e-02  -5.7 7.09e-01  -1.0 5.41e-01 7.40e-01H  1
iter    objective    inf_pr   inf_du lg(mu)  ||d||  lg(rg) alpha_du alpha_pr  ls
 140  1.6409689e+01 1.13e-01 3.32e-02  -5.7 1.80e-01  -1.4 9.23e-01 1.00e+00h  1
 141  1.6409420e+01 8.88e-02 1.77e-02  -5.7 6.48e-02  -1.9 6.93e-01 2.15e-01h  1
 142  1.6407781e+01 7.12e-02 1.03e-02  -5.7 1.08e-01  -2.4 1.00e+00 7.77e-01f  1
 143  1.6406994e+01 5.53e-02 8.50e-03  -5.7 2.00e-01  -2.9 5.75e-01 2.82e-01h  1
 144  1.6401610e+01 6.24e-02 1.08e-03  -5.7 4.11e-01  -3.3 1.00e+00 1.00e+00h  1
 145  1.6389156e+01 3.43e-02 8.06e-04  -5.7 8.00e-01  -3.8 1.00e+00 1.00e+00h  1
 146  1.6358963e+01 6.63e-02 4.92e-04  -5.7 1.62e+00  -4.3 1.00e+00 9.55e-01h  1
 147  1.6347490e+01 5.99e-02 5.71e-03  -5.7 3.37e+00  -4.8 3.33e-01 1.72e-01h  1
 148  1.6342853e+01 5.95e-02 9.85e-03  -5.7 8.94e+00  -5.2 2.35e-01 2.95e-02h  1
 149  1.6303461e+01 1.30e-01 8.73e-03  -5.7 2.93e+01  -5.7 1.12e-01 1.13e-01h  1
iter    objective    inf_pr   inf_du lg(mu)  ||d||  lg(rg) alpha_du alpha_pr  ls
 150  1.6268271e+01 1.61e-01 8.46e-03  -5.7 3.05e+02  -6.2 1.48e-02 1.79e-02h  1
 151  1.6247208e+01 1.55e-01 8.50e-03  -5.7 2.10e+02  -6.7 5.52e-02 4.61e-02h  1
 152  1.6238869e+01 1.54e-01 8.41e-03  -5.7 9.02e+02  -7.2 7.27e-03 7.62e-03h  1
 153  1.6231586e+01 1.52e-01 1.12e-02  -5.7 2.28e+02  -6.7 8.71e-02 1.45e-02h  1
 154  1.6195300e+01 4.82e-01 1.98e-02  -5.7 9.13e+02  -7.2 1.19e-02 3.22e-02h  1
 155  1.6187096e+01 4.70e-01 8.52e-03  -5.7 1.44e+02  -6.8 6.65e-02 2.46e-02h  1
 156  1.6182004e+01 4.82e-01 6.57e-03  -5.7 1.14e+03  -7.3 1.08e-02 4.52e-03h  1
 157  1.6162274e+01 4.59e-01 6.76e-03  -5.7 2.32e+02  -6.8 3.00e-02 4.78e-02h  1
 158  1.6157032e+01 4.64e-01 1.11e-02  -5.7 5.11e+02  -7.3 3.76e-02 1.13e-02h  1
 159  1.6143393e+01 4.40e-01 1.51e-02  -5.7 1.02e+02  -6.9 6.74e-02 5.25e-02h  1
iter    objective    inf_pr   inf_du lg(mu)  ||d||  lg(rg) alpha_du alpha_pr  ls
 160  1.6137165e+01 4.39e-01 1.54e-02  -5.7 5.16e+02  -7.4 2.88e-03 8.29e-03h  1
 161  1.6131962e+01 4.28e-01 1.51e-02  -5.7 1.19e+02  -6.9 2.47e-02 2.33e-02h  1
 162  1.6130222e+01 4.26e-01 2.58e-02  -5.7 3.22e+02  -7.4 9.63e-02 5.86e-03h  1
 163  1.6126657e+01 4.33e-01 2.93e-02  -5.7 7.82e+02  -7.9 2.11e-02 7.79e-03h  1
 164  1.6120511e+01 4.20e-01 2.11e-02  -5.7 6.23e+01    -  1.02e-02 4.35e-02h  1
 165  1.6116059e+01 4.10e-01 2.01e-02  -5.7 7.62e+01    -  2.79e-02 2.96e-02h  1
 166  1.6113652e+01 4.07e-01 1.99e-02  -5.7 2.63e+02    -  9.41e-03 8.73e-03h  1
 167  1.6113197e+01 4.06e-01 1.99e-02  -5.7 1.30e+02    -  1.86e-03 2.55e-03h  1
 168  1.6101440e+01 3.97e-01 2.17e-02  -5.7 6.66e+01    -  5.28e-02 7.88e-02h  1
 169  1.6097978e+01 3.87e-01 2.18e-02  -5.7 5.78e+01    -  2.80e-02 3.27e-02h  1
iter    objective    inf_pr   inf_du lg(mu)  ||d||  lg(rg) alpha_du alpha_pr  ls
 170  1.6090127e+01 3.74e-01 1.97e-02  -5.7 5.90e+01    -  7.72e-02 7.39e-02h  1
 171  1.6089729e+01 3.72e-01 1.40e-02  -5.7 4.21e+01    -  7.35e-02 5.24e-03h  1
 172  1.6087677e+01 3.55e-01 2.30e-02  -5.7 1.79e+01    -  1.09e-01 6.74e-02h  1
 173  1.6087052e+01 3.47e-01 2.47e-02  -5.7 1.50e+01    -  1.07e-01 2.51e-02h  1
 174  1.6085473e+01 3.31e-01 9.28e-02  -5.7 1.86e+01    -  7.20e-03 6.03e-02h  1
 175  1.6084503e+01 3.14e-01 9.05e-02  -5.7 1.01e+01    -  7.72e-02 5.66e-02h  1
 176  1.6084335e+01 3.10e-01 8.93e-02  -5.7 8.31e+00    -  9.41e-02 1.33e-02h  1
 177  1.6083040e+01 2.85e-01 8.00e-02  -5.7 1.07e+01    -  2.02e-01 1.03e-01h  1
 178  1.6080438e+01 2.37e-01 5.83e-02  -5.7 8.87e+00    -  1.04e-01 2.72e-01h  1
 179  1.6078250e+01 1.79e-01 3.90e-02  -5.7 1.16e+01    -  3.76e-02 2.73e-01h  1
iter    objective    inf_pr   inf_du lg(mu)  ||d||  lg(rg) alpha_du alpha_pr  ls
 180  1.6077859e+01 1.06e-01 2.13e-02  -5.7 4.87e+00    -  4.17e-01 4.53e-01h  1
 181  1.6077839e+01 9.65e-02 1.94e-02  -5.7 3.23e+00    -  1.10e-01 8.93e-02h  1
 182  1.6077649e+01 6.10e-02 1.19e-02  -5.7 4.92e+00    -  1.47e-01 3.84e-01h  1
 183  1.6077652e+01 4.07e-02 7.93e-03  -5.7 2.39e+00    -  5.37e-01 3.37e-01h  1
 184  1.6077779e+01 3.68e-03 8.71e-05  -5.7 1.57e+00    -  1.00e+00 1.00e+00h  1
 185  1.6077853e+01 9.83e-04 3.01e-05  -5.7 2.41e-02    -  1.00e+00 1.00e+00h  1
 186  1.6077853e+01 9.25e-05 2.45e-06  -5.7 2.36e-03    -  1.00e+00 1.00e+00h  1
 187  1.6077853e+01 4.36e-07 1.45e-08  -5.7 5.00e-05    -  1.00e+00 1.00e+00h  1
 188  1.6077754e+01 1.56e-04 1.48e-04  -7.0 5.41e-02    -  1.00e+00 9.57e-01h  1
 189  1.6077749e+01 1.37e-05 2.25e-05  -7.0 1.50e-02    -  1.00e+00 1.00e+00h  1
iter    objective    inf_pr   inf_du lg(mu)  ||d||  lg(rg) alpha_du alpha_pr  ls
 190  1.6077749e+01 4.64e-07 8.10e-07  -7.0 1.24e-03    -  1.00e+00 1.00e+00h  1

Number of Iterations....: 190

                                   (scaled)                 (unscaled)
Objective...............:   1.6077749316438620e+01    1.6077749316438620e+01
Dual infeasibility......:   8.0957880565379501e-07    8.0957880565379501e-07
Constraint violation....:   4.6413387710941834e-07    4.6413387710941834e-07
Variable bound violation:   0.0000000000000000e+00    0.0000000000000000e+00
Complementarity.........:   9.9367800318302788e-08    9.9367800318302788e-08
Overall NLP error.......:   8.0957880565379501e-07    8.0957880565379501e-07


Number of objective function evaluations             = 204
Number of objective gradient evaluations             = 191
Number of equality constraint evaluations            = 204
Number of inequality constraint evaluations          = 204
Number of equality constraint Jacobian evaluations   = 192
Number of inequality constraint Jacobian evaluations = 192
Number of Lagrangian Hessian evaluations             = 190
Total seconds in IPOPT                               = 31.248

EXIT: Optimal Solution Found.
      solver  :   t_proc      (avg)   t_wall      (avg)    n_eval
       nlp_f  |   6.78ms ( 33.23us)   6.79ms ( 33.27us)       204
       nlp_g  |   1.03 s (  5.07ms)   1.04 s (  5.09ms)       204
  nlp_grad_f  |  10.38ms ( 54.05us)  10.39ms ( 54.12us)       192
  nlp_hess_l  |  18.75 s ( 99.19ms)  18.84 s ( 99.70ms)       189
   nlp_jac_g  |   5.86 s ( 30.36ms)   5.89 s ( 30.52ms)       193
       total  |  31.09 s ( 31.09 s)  31.25 s ( 31.25 s)         1
  Success: True
  Cost: 16.0777
  Iterations: 190
  Solve time: 50.96 s
  Max obstacle slack: 0.0000e+00
  Min obstacle clearance: -0.0016 m
  Accepted: True

Accepted attempt: baseline

Generating plots...
  Saved: /run/media/saveas/Secondary-Storage/Masters/CS234/CS234_Reinforcement_Learning/Final Project/CS234_Final_Project/results/trajectory_optimization/nlp/Oval_Track_260m_Obstacles/N120/ipopt_single_stage_trajectory.png
  Saved: /run/media/saveas/Secondary-Storage/Masters/CS234/CS234_Reinforcement_Learning/Final Project/CS234_Final_Project/results/trajectory_optimization/nlp/Oval_Track_260m_Obstacles/N120/ipopt_single_stage_states.png
  Saved: /run/media/saveas/Secondary-Storage/Masters/CS234/CS234_Reinforcement_Learning/Final Project/CS234_Final_Project/results/trajectory_optimization/nlp/Oval_Track_260m_Obstacles/N120/ipopt_single_stage_controls.png

Generating animation...
  Saved: /run/media/saveas/Secondary-Storage/Masters/CS234/CS234_Reinforcement_Learning/Final Project/CS234_Final_Project/results/trajectory_optimization/nlp/Oval_Track_260m_Obstacles/N120/ipopt_single_stage_animation.gif

======================================================================
SUMMARY
======================================================================
Selected attempt: baseline
Attempt                    N      Subs   Clear    Iters    Time [s]   Cost [s]   Max Sigma    Min Clear [m]  Accepted
-----------------------------------------------------------------------------------------------------------------------------
baseline                   120    11     0.300    190      50.96      16.0777    0.000e+00    -0.0016        True

All outputs saved to: /run/media/saveas/Secondary-Storage/Masters/CS234/CS234_Reinforcement_Learning/Final Project/CS234_Final_Project/results/trajectory_optimization/nlp/Oval_Track_260m_Obstacles/N120
